p tdp 90 89
24 68
37 64
45 56
10 75
24 21
8 34
67 13
80 57
9 32
18 46
6 72
1 89
54 9
78 25
20 87
29 65
5 23
27 30
72 18
16 57
64 86
58 38
15 85
36 87
82 55
60 48
7 39
44 9
62 84
46 2
41 44
42 62
14 18
82 26
38 5
31 17
18 61
71 39
68 12
58 29
63 5
28 7
56 59
34 21
49 30
89 88
64 69
10 74
76 13
77 66
46 83
55 58
90 28
56 11
55 10
33 62
73 78
42 40
60 3
58 20
52 40
67 40
80 1
76 9
47 35
81 50
3 28
84 66
19 81
51 81
6 15
54 53
42 43
14 55
7 56
51 70
4 80
17 30
77 47
74 25
21 4
37 59
22 62
31 70
79 49
78 54
1 30
64 49
11 32
